(declare-fun y () Real)
(declare-fun x () Real)
(assert (or (and (>= x 0.0) (<= x 10.0) (>= y 0.0) (<= y 10.0))
    (and (>= x 1.0) (<= x 11.0) (>= y 1.0) (<= y 11.0))
    (and (>= x 2.0) (<= x 12.0) (>= y 2.0) (<= y 12.0))
    (and (>= x 3.0) (<= x 13.0) (>= y 3.0) (<= y 13.0))
    (and (>= x 4.0) (<= x 14.0) (>= y 4.0) (<= y 14.0))
    (and (>= x 5.0) (<= x 15.0) (>= y 5.0) (<= y 15.0))
    (and (>= x 6.0) (<= x 16.0) (>= y 6.0) (<= y 16.0))))

